NAME = SAfile175,
TOURSIZE = 175,
LENGTH = 21459,
163,67,117,35,16,146,42,6,58,160,2,137,17,110,171,119,46,89,148,49,118,72,26,5,39,120,19,93,69,31,114,48,92,170,53,64,159,105,50,103,167,123,102,144,80,32,172,157,82,44,97,136,161,47,37,38,113,74,7,87,154,68,166,45,29,133,116,25,139,62,15,9,83,98,79,156,61,75,108,84,85,104,151,112,81,71,91,134,41,21,36,132,99,140,153,70,149,24,173,11,59,128,66,10,77,122,33,18,54,95,143,130,34,78,162,174,4,109,20,43,115,138,52,96,145,63,141,152,88,135,94,158,90,111,76,86,56,30,3,142,60,175,124,100,65,23,168,28,169,147,150,14,57,155,8,125,129,55,106,51,107,12,121,22,165,164,126,27,1,73,13,127,101,131,40